p cnf 12 50 
1 -11 8 0
-8 -1 3 0
8 -9 -11 0
-6 3 -12 0
10 -5 4 0
3 5 8 0
4 -1 -6 0
-3 8 -9 0
11 -3 -7 0
-4 -6 -2 0
-5 -11 7 0
-2 -10 -6 0
-7 12 1 0
12 -1 4 0
-6 7 -2 0
11 -2 6 0
-12 -7 5 0
9 12 -1 0
3 11 7 0
-7 -8 -12 0
10 -3 -6 0
12 6 -2 0
-3 2 -6 0
2 3 6 0
6 1 2 0
3 -2 7 0
9 -4 12 0
11 -2 -8 0
-2 -5 -6 0
4 -2 -7 0
-8 4 -1 0
9 -4 10 0
9 6 -4 0
8 -5 3 0
-11 -2 -1 0
3 -4 5 0
5 9 -12 0
3 -6 10 0
-12 -5 8 0
8 7 4 0
1 -10 8 0
-12 -2 -10 0
12 7 1 0
-11 -3 2 0
6 12 -11 0
-9 -6 -5 0
-2 -12 3 0
9 -8 -10 0
-5 -6 -3 0
8 -10 -3 0
